\ENCODING=ISO-8859-1
\Problem name: IloCplex

Maximize
 obj: x1 + x2 + x3 + x4 + x5 + x6 + x7 + x8 + x9 + x10 + x11 + x12 + x13 + x14
      + x15 + x16 + x17 + x18 + x19 + x20 + x21 + x22 + x23 + x24 + x25 + x26
      + x27 + x28 + x29 + x30 + x31 + x32 + x33 + x34 + x35 + x36 + x37 + x38
      + x39 + x40 + x41 + x42 + x43 + x44 + x45 + x46 + x47 + x48 + x49 + x50
      + x51 + x52 + x53 + x54 + x55 + x56 + x57 + x58 + x59 + x60 + x61 + x62
      + x63 + x64 + x65 + x66 + x67 + x68 + x69 + x70 + x71 + x72 + x73 + x74
      + x75 + x76 + x77 + x78 + x79 + x80 + x81 + x82 + x83 + x84 + x85 + x86
      + x87 + x88 + x89 + x90 + x91 + x92 + x93 + x94 + x95 + x96 + x97 + x98
      + x99 + x100 + x101 + x102 + x103 + x104 + x105 + x106 + x107 + x108
      + x109 + x110 + x111 + x112 + x113 + x114 + x115 + x116 + x117 + x118
      + x119 + x120 + x121 + x122 + x123 + x124 + x125 + x126 - 111
Subject To
 c1:   x1 + x2 + x3 + x4 + x5 + x6 + x7 + x8 + x9 + x10 + x11 + x12 + x13 + x14
       + x15 + x16 + x17 + x18 + x19 + x20 + x21 + x22 + x23 >= 21
 c2:   x24 + x25 + x26 + x27 + x28 + x29 >= 4
 c3:   x30 + x31 + x32 + x33 + x34 + x35 + x36 + x37 + x38 + x39 + x40 >= 9
 c4:   x41 + x42 + x43 + x44 + x45 + x46 + x47 + x48 + x49 + x50 + x51 + x52
       + x53 >= 11
 c5:   x54 + x55 + x56 + x57 >= 2
 c6:   x58 + x59 + x60 + x61 + x62 + x63 + x64 + x65 + x66 + x67 + x68 + x69
       + x70 + x71 + x72 + x73 + x74 + x75 + x76 + x77 + x78 >= 19
 c7:   x79 + x80 + x81 >= 1
 c8:   x82 + x83 + x84 + x85 + x86 >= 3
 c9:   x87 + x88 >= 0
 c10:  x89 + x90 + x91 + x92 >= 2
 c11:  x93 + x94 + x95 + x96 + x97 + x98 + x99 + x100 >= 6
 c12:  x101 + x102 >= 0
 c13:  x103 + x104 + x105 + x106 + x107 + x108 + x109 + x110 + x111 >= 7
 c14:  x112 + x113 + x114 + x115 + x116 + x117 >= 4
 c15:  x118 + x119 + x120 + x121 + x122 + x123 + x124 + x125 + x126 >= 7
 c16:  16 x127 <= 65
 c17:  16 x127 <= 65
 c18:  16 x127 <= 65
 c19:  16 x127 <= 65
 c20:  16 x127 <= 65
 c21:  16 x127 <= 65
 c22:  16 x127 <= 65
 c23:  16 x127 <= 65
 c24:  16 x127 <= 65
 c25:  16 x127 <= 65
 c26:  16 x127 <= 65
 c27:  <= 65
 c28:  <= 65
 c29:  <= 65
 c30:  <= 65
 c31:  <= 65
 c32:  <= 65
 c33:  <= 65
 c34:  <= 65
 c35:  <= 65
 c36:  <= 65
 c37:  <= 65
 c38:  <= 65
 c39:  <= 65
 c40:  <= 65
 c41:  <= 65
 c42:  <= 65
 c43:  <= 65
 c44:  <= 65
 c45:  <= 65
 c46:  <= 65
 c47:  <= 65
 c48:  <= 65
 c49:  <= 65
 c50:  <= 65
 c51:  <= 65
 c52:  <= 65
 c53:  <= 65
 c54:  <= 65
 c55:  <= 65
 c56:  16 x128 <= 65
 c57:  16 x128 <= 65
 c58:  16 x128 <= 65
 c59:  16 x128 <= 65
 c60:  16 x128 <= 65
 c61:  16 x128 <= 65
 c62:  16 x128 <= 65
 c63:  16 x128 <= 65
 c64:  16 x128 <= 65
 c65:  16 x128 <= 65
 c66:  16 x128 <= 65
 c67:  16 x128 <= 65
 c68:  16 x128 <= 2
 c69:  16 x129 <= 65
 c70:  16 x129 <= 65
 c71:  16 x129 <= 65
 c72:  16 x129 <= 65
 c73:  16 x129 <= 65
 c74:  16 x129 <= 65
 c75:  16 x129 <= 65
 c76:  16 x129 <= 65
 c77:  16 x129 <= 65
 c78:  16 x129 <= 65
 c79:  16 x129 <= 65
 c80:  16 x129 <= 65
 c81:  16 x129 <= 65
 c82:  16 x129 <= 65
 c83:  16 x129 <= 65
 c84:  16 x129 <= 65
 c85:  16 x129 <= 65
 c86:  16 x129 <= 65
 c87:  16 x129 <= 65
 c88:  16 x129 <= 65
 c89:  16 x129 <= 65
 c90:  16 x130 <= 65
 c91:  16 x130 <= 65
 c92:  16 x130 <= 65
 c93:  16 x130 <= 65
 c94:  16 x131 <= 65
 c95:  16 x131 <= 65
 c96:  16 x132 <= 65
 c97:  16 x132 <= 65
 c98:  16 x132 <= 65
 c99:  16 x132 <= 65
 c100: 16 x133 <= 65
 c101: 16 x133 <= 65
 c102: 16 x134 <= 65
 c103: 16 x134 <= 65
 c104: 16 x134 <= 65
 c105: 16 x135 <= 65
 c106: 16 x135 <= 65
 c107: 16 x135 <= 65
 c108: 16 x135 + 16 x136 <= 65
 c109: 16 x135 + 16 x136 <= 65
 c110: 16 x135 + 16 x136 <= 65
 c111: 16 x135 + 16 x136 <= 65
 c112: 16 x135 + 16 x136 <= 65
 c113: 16 x135 <= 65
 c114: 16 x135 <= 65
 c115: 16 x135 <= 65
 c116: 16 x137 <= 64
 c117: 16 x137 <= 64
 c118: 16 x137 <= 64
 c119: 16 x137 <= 64
 c120: 16 x137 <= 64
 c121: 16 x137 <= 64
 c122: 16 x138 <= 65
 c123: 16 x138 <= 65
 c124: 16 x138 <= 65
 c125: 16 x138 <= 65
 c126: 16 x138 <= 65
 c127: 16 x138 <= 65
 c128: 16 x138 <= 65
 c129: 16 x138 <= 65
 c130: 16 x138 <= 65
 c131: 16 x139 <= 65
 c132: 16 x139 <= 65
 c133: 16 x139 <= 65
 c134: 16 x139 <= 65
 c135: 16 x139 <= 65
 c136: 16 x139 <= 65
 c137: 16 x139 <= 65
 c138: 16 x139 <= 39
 i1:  x127 = 1 <-> x30 + x31 + x32 + x33 + x34 + x35 + x36 + x37 + x38 + x39
      + x40  = 10
 i2:  x128 = 1 <-> x41 + x42 + x43 + x44 + x45 + x46 + x47 + x48 + x49 + x50
      + x51 + x52 + x53  = 12
 i3:  x129 = 1 <-> x58 + x59 + x60 + x61 + x62 + x63 + x64 + x65 + x66 + x67
      + x68 + x69 + x70 + x71 + x72 + x73 + x74 + x75 + x76 + x77 + x78  = 20
 i4:  x130 = 1 <-> x54 + x55 + x56 + x57  = 3
 i5:  x131 = 1 <-> x87 + x88  = 1
 i6:  x132 = 1 <-> x89 + x90 + x91 + x92  = 3
 i7:  x133 = 1 <-> x101 + x102  = 1
 i8:  x134 = 1 <-> x79 + x80 + x81  = 2
 i9:  x135 = 1 <-> x103 + x104 + x105 + x106 + x107 + x108 + x109 + x110 + x111
       = 8
 i10: x136 = 1 <-> x82 + x83 + x84 + x85 + x86  = 4
 i11: x137 = 1 <-> x112 + x113 + x114 + x115 + x116 + x117  = 5
 i12: x138 = 1 <-> x118 + x119 + x120 + x121 + x122 + x123 + x124 + x125 + x126
       = 8
 i13: x139 = 1 <-> x93 + x94 + x95 + x96 + x97 + x98 + x99 + x100  = 7
Bounds
 0 <= x1 <= 1
 0 <= x2 <= 1
 0 <= x3 <= 1
 0 <= x4 <= 1
 0 <= x5 <= 1
 0 <= x6 <= 1
 0 <= x7 <= 1
 0 <= x8 <= 1
 0 <= x9 <= 1
 0 <= x10 <= 1
 0 <= x11 <= 1
 0 <= x12 <= 1
 0 <= x13 <= 1
 0 <= x14 <= 1
 0 <= x15 <= 1
 0 <= x16 <= 1
 0 <= x17 <= 1
 0 <= x18 <= 1
 0 <= x19 <= 1
 0 <= x20 <= 1
 0 <= x21 <= 1
 0 <= x22 <= 1
 0 <= x23 <= 1
 0 <= x24 <= 1
 0 <= x25 <= 1
 0 <= x26 <= 1
 0 <= x27 <= 1
 0 <= x28 <= 1
 0 <= x29 <= 1
 0 <= x30 <= 1
 0 <= x31 <= 1
 0 <= x32 <= 1
 0 <= x33 <= 1
 0 <= x34 <= 1
 0 <= x35 <= 1
 0 <= x36 <= 1
 0 <= x37 <= 1
 0 <= x38 <= 1
 0 <= x39 <= 1
 0 <= x40 <= 1
 0 <= x41 <= 1
 0 <= x42 <= 1
 0 <= x43 <= 1
 0 <= x44 <= 1
 0 <= x45 <= 1
 0 <= x46 <= 1
 0 <= x47 <= 1
 0 <= x48 <= 1
 0 <= x49 <= 1
 0 <= x50 <= 1
 0 <= x51 <= 1
 0 <= x52 <= 1
 0 <= x53 <= 1
 0 <= x54 <= 1
 0 <= x55 <= 1
 0 <= x56 <= 1
 0 <= x57 <= 1
 0 <= x58 <= 1
 0 <= x59 <= 1
 0 <= x60 <= 1
 0 <= x61 <= 1
 0 <= x62 <= 1
 0 <= x63 <= 1
 0 <= x64 <= 1
 0 <= x65 <= 1
 0 <= x66 <= 1
 0 <= x67 <= 1
 0 <= x68 <= 1
 0 <= x69 <= 1
 0 <= x70 <= 1
 0 <= x71 <= 1
 0 <= x72 <= 1
 0 <= x73 <= 1
 0 <= x74 <= 1
 0 <= x75 <= 1
 0 <= x76 <= 1
 0 <= x77 <= 1
 0 <= x78 <= 1
 0 <= x79 <= 1
 0 <= x80 <= 1
 0 <= x81 <= 1
 0 <= x82 <= 1
 0 <= x83 <= 1
 0 <= x84 <= 1
 0 <= x85 <= 1
 0 <= x86 <= 1
 0 <= x87 <= 1
 0 <= x88 <= 1
 0 <= x89 <= 1
 0 <= x90 <= 1
 0 <= x91 <= 1
 0 <= x92 <= 1
 0 <= x93 <= 1
 0 <= x94 <= 1
 0 <= x95 <= 1
 0 <= x96 <= 1
 0 <= x97 <= 1
 0 <= x98 <= 1
 0 <= x99 <= 1
 0 <= x100 <= 1
 0 <= x101 <= 1
 0 <= x102 <= 1
 0 <= x103 <= 1
 0 <= x104 <= 1
 0 <= x105 <= 1
 0 <= x106 <= 1
 0 <= x107 <= 1
 0 <= x108 <= 1
 0 <= x109 <= 1
 0 <= x110 <= 1
 0 <= x111 <= 1
 0 <= x112 <= 1
 0 <= x113 <= 1
 0 <= x114 <= 1
 0 <= x115 <= 1
 0 <= x116 <= 1
 0 <= x117 <= 1
 0 <= x118 <= 1
 0 <= x119 <= 1
 0 <= x120 <= 1
 0 <= x121 <= 1
 0 <= x122 <= 1
 0 <= x123 <= 1
 0 <= x124 <= 1
 0 <= x125 <= 1
 0 <= x126 <= 1
 0 <= x127 <= 1
 0 <= x128 <= 1
 0 <= x129 <= 1
 0 <= x130 <= 1
 0 <= x131 <= 1
 0 <= x132 <= 1
 0 <= x133 <= 1
 0 <= x134 <= 1
 0 <= x135 <= 1
 0 <= x136 <= 1
 0 <= x137 <= 1
 0 <= x138 <= 1
 0 <= x139 <= 1
Binaries
 x1  x2  x3  x4  x5  x6  x7  x8  x9  x10  x11  x12  x13  x14  x15  x16  x17 
 x18  x19  x20  x21  x22  x23  x24  x25  x26  x27  x28  x29  x30  x31  x32 
 x33  x34  x35  x36  x37  x38  x39  x40  x41  x42  x43  x44  x45  x46  x47 
 x48  x49  x50  x51  x52  x53  x54  x55  x56  x57  x58  x59  x60  x61  x62 
 x63  x64  x65  x66  x67  x68  x69  x70  x71  x72  x73  x74  x75  x76  x77 
 x78  x79  x80  x81  x82  x83  x84  x85  x86  x87  x88  x89  x90  x91  x92 
 x93  x94  x95  x96  x97  x98  x99  x100  x101  x102  x103  x104  x105  x106 
 x107  x108  x109  x110  x111  x112  x113  x114  x115  x116  x117  x118  x119 
 x120  x121  x122  x123  x124  x125  x126  x127  x128  x129  x130  x131  x132 
 x133  x134  x135  x136  x137  x138  x139 
End
